pr/lpsolve-precompiler/example/params/12
V1 = 1000
V2 = 10000

C1 = 2
C2 = 1
C3 = 3

A1 = 1
A2 = 12
A3 = 1
A4 = 2

M = 10000000

-----

